unknown
(model
; cardinality of BoundSet is 2
(declare-sort BoundSet 0)
; rep: @uc_BoundSet_0
; rep: @uc_BoundSet_1
(declare-sort UnboundSet 0)
(define-fun IsWearing ((BOUND_VARIABLE_370 BoundSet) (BOUND_VARIABLE_371 BoundSet)) Bool true)
(define-fun IsStanding ((BOUND_VARIABLE_380 BoundSet)) Bool false)
(define-fun IsNextTo ((BOUND_VARIABLE_370 BoundSet) (BOUND_VARIABLE_371 BoundSet)) Bool false)
(define-fun IsAt ((BOUND_VARIABLE_370 BoundSet) (BOUND_VARIABLE_371 BoundSet)) Bool false)
)
sat
(model
; cardinality of BoundSet is 1
(declare-sort BoundSet 0)
; rep: @uc_BoundSet_0
(declare-sort UnboundSet 0)
(define-fun IsWearing ((BOUND_VARIABLE_424 BoundSet) (BOUND_VARIABLE_425 BoundSet)) Bool true)
(define-fun IsStanding ((BOUND_VARIABLE_431 BoundSet)) Bool false)
(define-fun IsNextTo ((BOUND_VARIABLE_424 BoundSet) (BOUND_VARIABLE_425 BoundSet)) Bool true)
(define-fun IsAt ((BOUND_VARIABLE_424 BoundSet) (BOUND_VARIABLE_425 BoundSet)) Bool true)
)
